29 49
37 2
2 110
75 6
30 104
31 165
13 10
22 61
22 30
37 38
31 31
40 32
31 1
15 23
37 2
57 61
25 40
31 180
57 49
35 132
35 23
55 58
20 72
57 91
37 34
86 14
92 30
62 27
10 147
21 19
11 69
15 169
28 46
42 1
51 31
79 44
72 51
73 28
16 190
36 151
11 102
80 17
45 80
56 54
24 147
22 108
9 1
1 199
95 10
18 162
